solution status: optimal solution found
objective value:                      159223.34761044
d11(0,0)                                            1 	(obj:0)
d11(2,4)                                            1 	(obj:0)
d11(2,5)                                            1 	(obj:0)
d11(2,7)                                            1 	(obj:0)
d11(2,8)                                            1 	(obj:0)
d11(2,10)                                           1 	(obj:0)
d11(2,11)                                           1 	(obj:0)
d11(3,13)                                           1 	(obj:0)
d11(3,14)                                           1 	(obj:0)
d11(3,15)                                           1 	(obj:0)
d11(3,16)                                           1 	(obj:0)
d11(3,17)                                           1 	(obj:0)
d11(3,18)                                           1 	(obj:0)
d11(3,19)                                           1 	(obj:0)
d11(3,20)                                           1 	(obj:0)
d11(3,21)                                           1 	(obj:0)
d11(3,22)                                           1 	(obj:0)
d11(3,23)                                           1 	(obj:0)
d11(3,24)                                           1 	(obj:0)
d11(3,25)                                           1 	(obj:0)
d11(3,26)                                           1 	(obj:0)
d11(3,28)                                           1 	(obj:0)
d11(3,29)                                           1 	(obj:0)
d11(3,30)                                           1 	(obj:0)
d11(3,31)                                           1 	(obj:0)
d11(3,32)                                           1 	(obj:0)
d11(3,33)                                           1 	(obj:0)
d11(3,34)                                           1 	(obj:0)
d11(3,35)                                           1 	(obj:0)
d11(3,36)                                           1 	(obj:0)
d11(3,37)                                           1 	(obj:0)
d11(3,38)                                           1 	(obj:0)
d11(3,39)                                           1 	(obj:0)
d11(4,40)                                           1 	(obj:0)
d11(4,41)                                           1 	(obj:0)
d11(4,42)                                           1 	(obj:0)
d11(4,43)                                           1 	(obj:0)
d11(4,44)                                           1 	(obj:0)
d11(4,45)                                           1 	(obj:0)
d11(4,46)                                           1 	(obj:0)
d11(4,47)                                           1 	(obj:0)
d11(4,48)                                           1 	(obj:0)
d11(4,49)                                           1 	(obj:0)
d11(4,50)                                           1 	(obj:0)
d11(4,52)                                           1 	(obj:0)
d11(4,53)                                           1 	(obj:0)
d11(4,54)                                           1 	(obj:0)
d11(4,55)                                           1 	(obj:0)
d11(4,56)                                           1 	(obj:0)
d11(4,57)                                           1 	(obj:0)
d11(4,58)                                           1 	(obj:0)
d11(4,59)                                           1 	(obj:0)
d11(4,60)                                           1 	(obj:0)
d11(4,61)                                           1 	(obj:0)
d11(4,62)                                           1 	(obj:0)
d11(4,63)                                           1 	(obj:0)
d11(4,64)                                           1 	(obj:0)
d11(4,65)                                           1 	(obj:0)
d11(4,67)                                           1 	(obj:0)
d11(4,68)                                           1 	(obj:0)
d11(4,69)                                           1 	(obj:0)
d11(4,70)                                           1 	(obj:0)
d11(4,71)                                           1 	(obj:0)
d11(4,72)                                           1 	(obj:0)
d11(4,73)                                           1 	(obj:0)
d11(4,74)                                           1 	(obj:0)
d11(4,75)                                           1 	(obj:0)
d11(4,76)                                           1 	(obj:0)
d11(4,77)                                           1 	(obj:0)
d11(4,79)                                           1 	(obj:0)
d11(4,80)                                           1 	(obj:0)
d11(4,81)                                           1 	(obj:0)
d11(4,82)                                           1 	(obj:0)
d11(4,83)                                           1 	(obj:0)
d11(4,84)                                           1 	(obj:0)
d11(4,85)                                           1 	(obj:0)
d11(4,86)                                           1 	(obj:0)
d11(4,87)                                           1 	(obj:0)
d11(4,88)                                           1 	(obj:0)
d11(4,89)                                           1 	(obj:0)
d11(4,90)                                           1 	(obj:0)
d11(4,91)                                           1 	(obj:0)
d11(4,92)                                           1 	(obj:0)
d11(4,93)                                           1 	(obj:0)
d11(4,94)                                           1 	(obj:0)
d11(4,95)                                           1 	(obj:0)
d11(4,96)                                           1 	(obj:0)
d11(4,97)                                           1 	(obj:0)
d11(4,98)                                           1 	(obj:0)
d11(4,99)                                           1 	(obj:0)
d11(4,100)                                          1 	(obj:0)
d11(4,101)                                          1 	(obj:0)
d11(4,102)                                          1 	(obj:0)
d11(4,103)                                          1 	(obj:0)
d11(4,104)                                          1 	(obj:0)
d11(4,105)                                          1 	(obj:0)
d11(4,106)                                          1 	(obj:0)
d11(4,107)                                          1 	(obj:0)
d11(4,108)                                          1 	(obj:0)
d11(4,109)                                          1 	(obj:0)
d11(4,110)                                          1 	(obj:0)
d11(4,111)                                          1 	(obj:0)
d11(4,112)                                          1 	(obj:0)
d11(4,113)                                          1 	(obj:0)
d11(4,114)                                          1 	(obj:0)
d11(4,115)                                          1 	(obj:0)
d11(4,116)                                          1 	(obj:0)
d11(4,117)                                          1 	(obj:0)
d11(4,118)                                          1 	(obj:0)
d11(4,119)                                          1 	(obj:0)
d11(4,120)                                          1 	(obj:0)
d12(1,2)                                            1 	(obj:0)
d12(1,3)                                            1 	(obj:0)
d21(3,13)                                           1 	(obj:0)
d21(3,14)                                           1 	(obj:0)
d21(3,16)                                           1 	(obj:0)
d21(3,22)                                           1 	(obj:0)
d21(4,40)                                           1 	(obj:0)
d21(4,41)                                           1 	(obj:0)
d21(4,42)                                           1 	(obj:0)
d21(4,43)                                           1 	(obj:0)
d21(4,44)                                           1 	(obj:0)
d21(4,45)                                           1 	(obj:0)
d21(4,46)                                           1 	(obj:0)
d21(4,47)                                           1 	(obj:0)
d21(4,49)                                           1 	(obj:0)
d21(4,50)                                           1 	(obj:0)
d21(4,51)                                           1 	(obj:0)
d21(4,52)                                           1 	(obj:0)
d21(4,53)                                           1 	(obj:0)
d21(4,55)                                           1 	(obj:0)
d21(4,58)                                           1 	(obj:0)
d21(4,59)                                           1 	(obj:0)
d21(4,61)                                           1 	(obj:0)
d21(4,67)                                           1 	(obj:0)
d21(4,68)                                           1 	(obj:0)
d21(4,69)                                           1 	(obj:0)
d21(4,70)                                           1 	(obj:0)
d21(4,71)                                           1 	(obj:0)
d21(4,73)                                           1 	(obj:0)
d21(4,76)                                           1 	(obj:0)
d21(4,77)                                           1 	(obj:0)
d21(4,79)                                           1 	(obj:0)
d21(4,80)                                           1 	(obj:0)
d21(4,85)                                           1 	(obj:0)
d21(4,86)                                           1 	(obj:0)
d21(4,94)                                           1 	(obj:0)
d21(4,95)                                           1 	(obj:0)
d21(4,97)                                           1 	(obj:0)
d21(4,98)                                           1 	(obj:0)
d21(4,103)                                          1 	(obj:0)
d21(4,104)                                          1 	(obj:0)
d21(4,106)                                          1 	(obj:0)
STE(1,1)                                         8694 	(obj:0)
STE(0,0)                                         9450 	(obj:0)
STE(1,2)                             9479.67061000006 	(obj:0)
STE(1,3)                             10520.5922438501 	(obj:0)
STE(2,4)                             5723.78179333332 	(obj:0)
STE(2,5)                             6720.54779666661 	(obj:0)
STE(2,6)                                         7938 	(obj:0)
STE(2,7)                             6509.45240333338 	(obj:0)
STE(2,8)                             7506.21840666667 	(obj:0)
STE(2,9)                             8723.67061000006 	(obj:0)
STE(2,10)                            7550.37403718341 	(obj:0)
STE(2,11)                            8547.14004051671 	(obj:0)
STE(2,12)                             9764.5922438501 	(obj:0)
STE(3,13)                            2753.56358666663 	(obj:0)
STE(3,14)                            3750.32958999993 	(obj:0)
STE(3,15)                            4967.78179333332 	(obj:0)
STE(3,16)                            3750.32958999993 	(obj:0)
STE(3,17)                            4747.09559333322 	(obj:0)
STE(3,18)                            5964.54779666659 	(obj:0)
STE(3,19)                            4967.78179333332 	(obj:0)
STE(3,20)                            5964.54779666661 	(obj:0)
STE(3,21)                            7181.99999999999 	(obj:0)
STE(3,22)                            3539.23419666669 	(obj:0)
STE(3,23)                            4536.00020002311 	(obj:0)
STE(3,24)                            5753.45240333338 	(obj:0)
STE(3,25)                            4536.00020001358 	(obj:0)
STE(3,26)                            5532.76620333328 	(obj:0)
STE(3,27)                            6750.21840666667 	(obj:0)
STE(3,28)                            5753.45240333338 	(obj:0)
STE(3,29)                            6750.21840666667 	(obj:0)
STE(3,30)                            7967.67061000005 	(obj:0)
STE(3,31)                            4580.15583051673 	(obj:0)
STE(3,32)                            5576.92183385002 	(obj:0)
STE(3,33)                            6794.37403718341 	(obj:0)
STE(3,34)                            5576.92183385003 	(obj:0)
STE(3,35)                            6573.68783718332 	(obj:0)
STE(3,36)                            7791.14004051671 	(obj:0)
STE(3,37)                            6794.37403718342 	(obj:0)
STE(3,38)                            7791.14004051671 	(obj:0)
STE(3,39)                            9008.59224385009 	(obj:0)
STE(4,40)                           -216.654620000034 	(obj:0)
STE(4,41)                            780.111383333256 	(obj:0)
STE(4,42)                            1997.56358666663 	(obj:0)
STE(4,43)                            780.111383333256 	(obj:0)
STE(4,44)                            1776.87738666655 	(obj:0)
STE(4,45)                            2994.32958999993 	(obj:0)
STE(4,46)                            1997.56358666665 	(obj:0)
STE(4,47)                            2994.32958999994 	(obj:0)
STE(4,48)                            4211.78179333332 	(obj:0)
STE(4,49)                            780.111383333256 	(obj:0)
STE(4,50)                            1776.87738666655 	(obj:0)
STE(4,51)                            2994.32958999993 	(obj:0)
STE(4,52)                            1776.87738666655 	(obj:0)
STE(4,53)                            2773.64338999984 	(obj:0)
STE(4,54)                            3991.09559333322 	(obj:0)
STE(4,55)                            2994.32958999993 	(obj:0)
STE(4,56)                            3991.09559333322 	(obj:0)
STE(4,57)                            5208.54779666659 	(obj:0)
STE(4,58)                            1997.56358666665 	(obj:0)
STE(4,59)                            2994.32958999994 	(obj:0)
STE(4,60)                            4211.78179333332 	(obj:0)
STE(4,61)                            2994.32958999994 	(obj:0)
STE(4,62)                            3991.09559333323 	(obj:0)
STE(4,63)                            5208.54779666661 	(obj:0)
STE(4,64)                            4211.78179333332 	(obj:0)
STE(4,65)                            5208.54779666661 	(obj:0)
STE(4,66)                            6425.99999999999 	(obj:0)
STE(4,67)                            569.015990000025 	(obj:0)
STE(4,68)                            1565.78199333332 	(obj:0)
STE(4,69)                            2783.23419666669 	(obj:0)
STE(4,70)                            1565.78199335644 	(obj:0)
STE(4,71)                            2562.54799668973 	(obj:0)
STE(4,72)                            3780.00020002311 	(obj:0)
STE(4,73)                            2783.23419666671 	(obj:0)
STE(4,74)                                   3780.0002 	(obj:0)
STE(4,75)                            4997.45240333338 	(obj:0)
STE(4,76)                            1565.78199334691 	(obj:0)
STE(4,77)                             2562.5479966802 	(obj:0)
STE(4,78)                            3780.00020001358 	(obj:0)
STE(4,79)                            2562.54799666661 	(obj:0)
STE(4,80)                             3559.3139999999 	(obj:0)
STE(4,81)                            4776.76620333328 	(obj:0)
STE(4,82)                                   3780.0002 	(obj:0)
STE(4,83)                            4776.76620333329 	(obj:0)
STE(4,84)                            5994.21840666667 	(obj:0)
STE(4,85)                            2783.23419666671 	(obj:0)
STE(4,86)                                   3780.0002 	(obj:0)
STE(4,87)                            4997.45240333338 	(obj:0)
STE(4,88)                                   3780.0002 	(obj:0)
STE(4,89)                            4776.76620333329 	(obj:0)
STE(4,90)                            5994.21840666667 	(obj:0)
STE(4,91)                            4997.45240333338 	(obj:0)
STE(4,92)                            5994.21840666667 	(obj:0)
STE(4,93)                            7211.67061000005 	(obj:0)
STE(4,94)                            1609.93762385006 	(obj:0)
STE(4,95)                            2606.70362718335 	(obj:0)
STE(4,96)                            3824.15583051673 	(obj:0)
STE(4,97)                            2606.70362718335 	(obj:0)
STE(4,98)                            3603.46963051664 	(obj:0)
STE(4,99)                            4820.92183385002 	(obj:0)
STE(4,100)                           3824.15583051674 	(obj:0)
STE(4,101)                           4820.92183385003 	(obj:0)
STE(4,102)                           6038.37403718341 	(obj:0)
STE(4,103)                           2606.70362718336 	(obj:0)
STE(4,104)                           3603.46963051665 	(obj:0)
STE(4,105)                           4820.92183385003 	(obj:0)
STE(4,106)                           3603.46963051665 	(obj:0)
STE(4,107)                           4600.23563384994 	(obj:0)
STE(4,108)                           5817.68783718332 	(obj:0)
STE(4,109)                           4820.92183385004 	(obj:0)
STE(4,110)                           5817.68783718333 	(obj:0)
STE(4,111)                           7035.14004051671 	(obj:0)
STE(4,112)                           3824.15583051675 	(obj:0)
STE(4,113)                           4820.92183385004 	(obj:0)
STE(4,114)                           6038.37403718342 	(obj:0)
STE(4,115)                           4820.92183385004 	(obj:0)
STE(4,116)                           5817.68783718333 	(obj:0)
STE(4,117)                           7035.14004051671 	(obj:0)
STE(4,118)                           6038.37403718342 	(obj:0)
STE(4,119)                           7035.14004051671 	(obj:0)
STE(4,120)                           8252.59224385009 	(obj:0)
y1(4,100)                                 1992.796386 	(obj:0)
y1(4,101)                            1095.70698300004 	(obj:0)
y1(4,103)                                 1992.796386 	(obj:0)
y1(4,104)                            1095.70698300004 	(obj:0)
y1(4,106)                                 1992.796386 	(obj:0)
y1(4,107)                            1095.70698300004 	(obj:0)
y1(4,109)                                 1992.796386 	(obj:0)
y1(4,110)                            1095.70698300004 	(obj:0)
y1(4,112)                                 1992.796386 	(obj:0)
y1(4,113)                            1095.70698300004 	(obj:0)
y1(4,115)                                 1992.796386 	(obj:0)
y1(4,116)                            1095.70698300004 	(obj:0)
y1(4,118)                                 1992.796386 	(obj:0)
y1(4,119)                            1095.70698300004 	(obj:0)
AVE(3)                                3399.3204933139 	(obj:0)
AVE(4)                               3353.21046544222 	(obj:0)
WG(1)                                2434.57971104217 	(obj:10)
WG(3)                                 3399.3204933139 	(obj:10)
WG(4)                                3353.21046544229 	(obj:10)
BG(2)                                      4495.91835 	(obj:10)
BG(3)                                 1096.5978566861 	(obj:10)
BG(4)                                1142.70788455769 	(obj:10)
WB(1)                                700.020726032411 	(obj:0)
AVE(1)                               3134.60043707458 	(obj:0)
WB(2)                                3326.45170866643 	(obj:0)
AVE(2)                               3326.45170866643 	(obj:0)
y1(2,4)                              1992.79638600001 	(obj:0)
y1(2,5)                              1095.70698300005 	(obj:0)
y1(2,7)                              1992.79638600001 	(obj:0)
y1(2,8)                              1095.70698300005 	(obj:0)
y1(2,10)                             1992.79638600002 	(obj:0)
y1(2,11)                             1095.70698300005 	(obj:0)
y1(3,13)                             1992.79638600001 	(obj:0)
y1(3,14)                             1095.70698300005 	(obj:0)
y1(3,16)                             1992.79638600001 	(obj:0)
y1(3,17)                             1095.70698300005 	(obj:0)
y1(3,19)                             1992.79638600001 	(obj:0)
y1(3,20)                             1095.70698300005 	(obj:0)
y1(3,22)                             1992.79638600001 	(obj:0)
y1(3,23)                             1095.70698297924 	(obj:0)
y1(3,25)                             1992.79638598778 	(obj:0)
y1(3,26)                             1095.70698300005 	(obj:0)
y1(3,28)                             1992.79638600001 	(obj:0)
y1(3,29)                             1095.70698300005 	(obj:0)
y1(3,31)                             1992.79638600001 	(obj:0)
y1(3,32)                             1095.70698300005 	(obj:0)
y1(3,34)                             1992.79638600001 	(obj:0)
y1(3,35)                             1095.70698300005 	(obj:0)
y1(3,37)                             1992.79638600001 	(obj:0)
y1(3,38)                             1095.70698300005 	(obj:0)
y1(4,40)                                  1992.796386 	(obj:0)
y1(4,41)                             1095.70698300004 	(obj:0)
y1(4,43)                                  1992.796386 	(obj:0)
y1(4,44)                             1095.70698300004 	(obj:0)
y1(4,46)                                  1992.796386 	(obj:0)
y1(4,47)                             1095.70698300004 	(obj:0)
y1(4,49)                                  1992.796386 	(obj:0)
y1(4,50)                             1095.70698300004 	(obj:0)
y1(4,52)                                  1992.796386 	(obj:0)
y1(4,53)                             1095.70698300004 	(obj:0)
y1(4,55)                                  1992.796386 	(obj:0)
y1(4,56)                             1095.70698300004 	(obj:0)
y1(4,58)                                  1992.796386 	(obj:0)
y1(4,59)                             1095.70698300004 	(obj:0)
y1(4,61)                                  1992.796386 	(obj:0)
y1(4,62)                             1095.70698300004 	(obj:0)
y1(4,64)                                  1992.796386 	(obj:0)
y1(4,65)                             1095.70698300004 	(obj:0)
y1(4,67)                                  1992.796386 	(obj:0)
y1(4,68)                             1095.70698300004 	(obj:0)
y1(4,70)                                  1992.796386 	(obj:0)
y1(4,71)                             1095.70698300004 	(obj:0)
y1(4,73)                                  1992.796386 	(obj:0)
y1(4,74)                             1095.70698300004 	(obj:0)
y1(4,76)                                  1992.796386 	(obj:0)
y1(4,77)                             1095.70698300004 	(obj:0)
y1(4,79)                                  1992.796386 	(obj:0)
y1(4,80)                             1095.70698300004 	(obj:0)
y1(4,82)                                  1992.796386 	(obj:0)
y1(4,83)                             1095.70698300004 	(obj:0)
y1(4,85)                                  1992.796386 	(obj:0)
y1(4,86)                             1095.70698300004 	(obj:0)
y1(4,88)                                  1992.796386 	(obj:0)
y1(4,89)                             1095.70698300004 	(obj:0)
y1(4,91)                                  1992.796386 	(obj:0)
y1(4,92)                             1095.70698300004 	(obj:0)
y1(4,94)                                  1992.796386 	(obj:0)
y1(4,95)                             1095.70698300004 	(obj:0)
y1(4,97)                                  1992.796386 	(obj:0)
y1(4,98)                             1095.70698300004 	(obj:0)
y2(1,2)                              827.021694736907 	(obj:0)
y2(1,3)                              1922.72867773695 	(obj:0)
